180
100
30
27
56
63
38
26
74
63
41
64
40
71
26
74
40
47
66
31
72
33
32
31
60
72
47
61
41
62
49
53
37
56
72
31
44
29
54
63
54
41
64
36
32
26
49
63
33
55
57
48
29
65
65
55
43
68
52
74
46
65
45
28
39
36
72
27
65
75
33
30
68
75
30
29
50
38
41
41
75
43
56
74
72
57
29
27
36
51
66
70
75
66
27
55
58
27
46
33
47
48
70
27
69
37
62
28
50
70
49
43
34
53
43
26
33
67
56
72
25
66
75
40
54
29
35
29
38
39
59
31
67
26
60
40
32
34
49
29
41
43
58
30
30
41
39
43
60
36
69
51
31
66
42
52
69
74
32
51
66
59
75
26
29
71
71
52
75
48
45
50
32
29
41
39
74
38
36
32
44
34
